db/data/12953387332644227032891610046592310612.z3.out
-------------------
2500.157402953
